% Logging successfully configured
%%%mzn-stat: initTime=0.031684808
%%%mzn-stat: objective=610
%%%mzn-stat: nodes=1204
%%%mzn-stat: restarts=0
%%%mzn-stat: peakDepth=1172
%%%mzn-stat: solveTime=0.062300975
%%%mzn-stat: variables=1793
%%%mzn-stat: propagators=1442
%%%mzn-stat: failures=16
%%%mzn-stat: propagations=6079
%%%mzn-stat: nogoods=16
%%%mzn-stat: numAtomicConstraintsPropagated=0
%%%mzn-stat: allDifferentNumber1PropagationsTotal=300
%%%mzn-stat: allDifferentNumber1PropagationsThatFoundConflict=0
%%%mzn-stat: allDifferentNumber1PropagationsThatPruned=171
%%%mzn-stat: allDifferentNumber1TotalValuesPruned=974
%%%mzn-stat: allDifferentNumber1TotalHallSetSizeConflict=0
%%%mzn-stat: allDifferentNumber1NumberOfConflicts=0
%%%mzn-stat: allDifferentNumber1MaxHallSetSizeConflict=0
%%%mzn-stat: allDifferentNumber1TotalPruningHallSetSize=6072
%%%mzn-stat: allDifferentNumber1NumberOfPruningExplanations=974
%%%mzn-stat: allDifferentNumber1MaxPruningHallSetSize=111
%%%mzn-stat: allDifferentNumber1TotalFixedEdgesAtConflict=0
%%%mzn-stat: allDifferentNumber1TotalVarsInvolvedInPruning=813
%%%mzn-stat: allDifferentNumber1MaxValuesPrunedFromSingleVar=5
%%%mzn-stat: allDifferentNumber1TotalSccSizeAtPruning=2313
%%%mzn-stat: allDifferentNumber1NumberOfSccPruningCalls=171
%%%mzn-stat: circuitNumber2PropagationsThatFoundConflict=16
%%%mzn-stat: circuitNumber2TotalFixedEdgesAtConflict=1851
%%%mzn-stat: circuitNumber2NumberOfConflicts=16
%%%mzn-stat: circuitNumber2PropagationsThatPruned=35
%%%mzn-stat: circuitNumber2PropagationsTotal=170
%%%mzn-stat: AverageConflictSize=15.8125
%%%mzn-stat: NumUnitNogoodsLearned=0
%%%mzn-stat: AverageLearnedNogoodLength=59.625
%%%mzn-stat: AverageBacktrackAmount=0
%%%mzn-stat: AverageLbd=24.6875
%%%mzn-stat: 2AutonomousSearchNumBackupCalled=1082
%%%mzn-stat: 2AutonomousSearchNumPredicatesRemoved=0
%%%mzn-stat: 2AutonomousSearchNumCalls=1083
%%%mzn-stat: 2AutonomousSearchNumPredicatesAdded=2158
%%%mzn-stat: 2AutonomousSearchAverageSizeOfHeap=1.9926131117266852
%%%mzn-stat: 2AutonomousSearchNumAssignedPredicatesEncountered=2158
%%%mzn-stat-end
maxleg = 610;
succ = array1d(1..150,[4, 11, 5, 32, 38, 10, 40, 23, 18, 24, 20, 13, 30, 35, 3, 25, 81, 21, 28, 22, 39, 41, 17, 9, 36, 27, 88, 33, 48, 34, 65, 45, 46, 19, 42, 37, 49, 58, 129, 85, 15, 60, 6, 16, 62, 73, 54, 50, 29, 56, 12, 26, 82, 55, 8, 84, 47, 64, 67, 70, 90, 102, 2, 1, 91, 68, 98, 108, 52, 94, 72, 109, 61, 43, 51, 69, 63, 119, 136, 44, 104, 126, 140, 137, 143, 106, 115, 99, 93, 97, 132, 124, 120, 86, 76, 130, 118, 75, 139, 96, 53, 111, 138, 107, 101, 103, 125, 112, 133, 57, 83, 113, 122, 144, 110, 146, 92, 31, 117, 121, 87, 128, 149, 59, 148, 66, 116, 135, 114, 14, 100, 141, 7, 127, 123, 89, 74, 150, 147, 79, 80, 77, 145, 71, 134, 142, 105, 95, 131, 78]);
% time elapsed: 5.08 s
----------
%%%mzn-stat: initTime=0.031684808
%%%mzn-stat: objective=572
%%%mzn-stat: nodes=2408
%%%mzn-stat: restarts=0
%%%mzn-stat: peakDepth=1172
%%%mzn-stat: solveTime=0.121999229
%%%mzn-stat: variables=1793
%%%mzn-stat: propagators=1442
%%%mzn-stat: failures=32
%%%mzn-stat: propagations=9740
%%%mzn-stat: nogoods=32
%%%mzn-stat: numAtomicConstraintsPropagated=0
%%%mzn-stat: allDifferentNumber1PropagationsTotal=659
%%%mzn-stat: allDifferentNumber1PropagationsThatFoundConflict=1
%%%mzn-stat: allDifferentNumber1PropagationsThatPruned=378
%%%mzn-stat: allDifferentNumber1TotalValuesPruned=1952
%%%mzn-stat: allDifferentNumber1TotalHallSetSizeConflict=7
%%%mzn-stat: allDifferentNumber1NumberOfConflicts=1
%%%mzn-stat: allDifferentNumber1MaxHallSetSizeConflict=7
%%%mzn-stat: allDifferentNumber1TotalPruningHallSetSize=11555
%%%mzn-stat: allDifferentNumber1NumberOfPruningExplanations=1952
%%%mzn-stat: allDifferentNumber1MaxPruningHallSetSize=111
%%%mzn-stat: allDifferentNumber1TotalFixedEdgesAtConflict=123
%%%mzn-stat: allDifferentNumber1TotalVarsInvolvedInPruning=1626
%%%mzn-stat: allDifferentNumber1MaxValuesPrunedFromSingleVar=8
%%%mzn-stat: allDifferentNumber1TotalSccSizeAtPruning=3826
%%%mzn-stat: allDifferentNumber1NumberOfSccPruningCalls=378
%%%mzn-stat: circuitNumber2PropagationsThatFoundConflict=31
%%%mzn-stat: circuitNumber2TotalFixedEdgesAtConflict=3809
%%%mzn-stat: circuitNumber2NumberOfConflicts=31
%%%mzn-stat: circuitNumber2PropagationsThatPruned=75
%%%mzn-stat: circuitNumber2PropagationsTotal=375
%%%mzn-stat: AverageConflictSize=10.8125
%%%mzn-stat: NumUnitNogoodsLearned=0
%%%mzn-stat: AverageLearnedNogoodLength=36.15625
%%%mzn-stat: AverageBacktrackAmount=0
%%%mzn-stat: AverageLbd=15.375
%%%mzn-stat: 2AutonomousSearchNumBackupCalled=2143
%%%mzn-stat: 2AutonomousSearchNumPredicatesRemoved=0
%%%mzn-stat: 2AutonomousSearchNumCalls=2145
%%%mzn-stat: 2AutonomousSearchNumPredicatesAdded=3678
%%%mzn-stat: 2AutonomousSearchAverageSizeOfHeap=2.6186480186480185
%%%mzn-stat: 2AutonomousSearchNumAssignedPredicatesEncountered=5617
%%%mzn-stat-end
maxleg = 572;
succ = array1d(1..150,[4, 11, 5, 32, 38, 10, 40, 23, 18, 24, 20, 13, 30, 35, 3, 25, 81, 21, 28, 22, 39, 41, 17, 9, 36, 27, 88, 33, 48, 34, 65, 45, 46, 19, 42, 37, 49, 58, 129, 85, 15, 60, 6, 16, 62, 73, 54, 50, 29, 56, 12, 26, 82, 55, 8, 84, 47, 64, 67, 70, 90, 102, 107, 1, 91, 68, 98, 108, 52, 94, 72, 109, 61, 43, 51, 69, 63, 119, 136, 74, 127, 126, 140, 137, 143, 106, 44, 99, 93, 97, 132, 124, 120, 86, 76, 130, 118, 75, 139, 96, 53, 111, 138, 148, 101, 103, 125, 112, 2, 57, 83, 113, 122, 144, 110, 146, 92, 31, 117, 121, 133, 128, 149, 59, 95, 66, 116, 135, 114, 14, 100, 141, 7, 104, 123, 89, 80, 150, 147, 79, 87, 77, 145, 71, 134, 142, 105, 115, 131, 78]);
% time elapsed: 5.13 s
----------
%%%mzn-stat: initTime=0.031684808
%%%mzn-stat: objective=425
%%%mzn-stat: nodes=7787
%%%mzn-stat: restarts=0
%%%mzn-stat: peakDepth=1172
%%%mzn-stat: solveTime=5.202727831
%%%mzn-stat: variables=1793
%%%mzn-stat: propagators=1442
%%%mzn-stat: failures=3529
%%%mzn-stat: propagations=105693
%%%mzn-stat: nogoods=3529
%%%mzn-stat: numAtomicConstraintsPropagated=0
%%%mzn-stat: allDifferentNumber1PropagationsTotal=15466
%%%mzn-stat: allDifferentNumber1PropagationsThatFoundConflict=29
%%%mzn-stat: allDifferentNumber1PropagationsThatPruned=9131
%%%mzn-stat: allDifferentNumber1TotalValuesPruned=28856
%%%mzn-stat: allDifferentNumber1TotalHallSetSizeConflict=173
%%%mzn-stat: allDifferentNumber1NumberOfConflicts=29
%%%mzn-stat: allDifferentNumber1MaxHallSetSizeConflict=37
%%%mzn-stat: allDifferentNumber1TotalPruningHallSetSize=72784
%%%mzn-stat: allDifferentNumber1NumberOfPruningExplanations=28856
%%%mzn-stat: allDifferentNumber1MaxPruningHallSetSize=111
%%%mzn-stat: allDifferentNumber1TotalFixedEdgesAtConflict=3725
%%%mzn-stat: allDifferentNumber1TotalVarsInvolvedInPruning=22293
%%%mzn-stat: allDifferentNumber1MaxValuesPrunedFromSingleVar=8
%%%mzn-stat: allDifferentNumber1TotalSccSizeAtPruning=32707
%%%mzn-stat: allDifferentNumber1NumberOfSccPruningCalls=9131
%%%mzn-stat: circuitNumber2PropagationsThatFoundConflict=3437
%%%mzn-stat: circuitNumber2TotalFixedEdgesAtConflict=502240
%%%mzn-stat: circuitNumber2NumberOfConflicts=3437
%%%mzn-stat: circuitNumber2PropagationsThatPruned=2313
%%%mzn-stat: circuitNumber2PropagationsTotal=9925
%%%mzn-stat: AverageConflictSize=62.831396996316236
%%%mzn-stat: NumUnitNogoodsLearned=0
%%%mzn-stat: AverageLearnedNogoodLength=60.019268914706714
%%%mzn-stat: AverageBacktrackAmount=0
%%%mzn-stat: AverageLbd=33.50779257580051
%%%mzn-stat: 2AutonomousSearchNumBackupCalled=3206
%%%mzn-stat: 2AutonomousSearchNumPredicatesRemoved=0
%%%mzn-stat: 2AutonomousSearchNumCalls=3209
%%%mzn-stat: 2AutonomousSearchNumPredicatesAdded=9223
%%%mzn-stat: 2AutonomousSearchAverageSizeOfHeap=3.8669367404175756
%%%mzn-stat: 2AutonomousSearchNumAssignedPredicatesEncountered=12409
%%%mzn-stat-end
maxleg = 425;
succ = array1d(1..150,[4, 11, 5, 32, 38, 10, 40, 23, 18, 24, 20, 13, 30, 35, 3, 25, 81, 21, 28, 22, 39, 41, 17, 9, 36, 27, 88, 33, 48, 34, 65, 45, 46, 19, 42, 37, 49, 58, 129, 85, 15, 60, 6, 16, 62, 73, 54, 50, 29, 56, 12, 26, 82, 55, 8, 84, 110, 64, 67, 70, 90, 102, 2, 1, 91, 68, 98, 108, 52, 94, 47, 57, 61, 43, 51, 95, 63, 119, 136, 44, 116, 126, 7, 137, 143, 106, 141, 123, 140, 31, 118, 124, 120, 86, 125, 130, 122, 75, 76, 96, 53, 111, 138, 148, 101, 103, 146, 112, 72, 115, 89, 113, 135, 144, 87, 127, 92, 97, 117, 133, 93, 128, 149, 59, 107, 66, 134, 105, 114, 14, 100, 74, 109, 145, 147, 83, 132, 150, 99, 79, 80, 77, 121, 71, 104, 142, 139, 69, 131, 78]);
% time elapsed: 10.22 s
----------
%%%mzn-stat: initTime=0.031684808
%%%mzn-stat: objective=196
%%%mzn-stat: nodes=10491
%%%mzn-stat: restarts=0
%%%mzn-stat: peakDepth=1172
%%%mzn-stat: solveTime=7.375055691
%%%mzn-stat: variables=1793
%%%mzn-stat: propagators=1442
%%%mzn-stat: failures=4656
%%%mzn-stat: propagations=140576
%%%mzn-stat: nogoods=4656
%%%mzn-stat: numAtomicConstraintsPropagated=0
%%%mzn-stat: allDifferentNumber1PropagationsTotal=20322
%%%mzn-stat: allDifferentNumber1PropagationsThatFoundConflict=30
%%%mzn-stat: allDifferentNumber1PropagationsThatPruned=11900
%%%mzn-stat: allDifferentNumber1TotalValuesPruned=38732
%%%mzn-stat: allDifferentNumber1TotalHallSetSizeConflict=175
%%%mzn-stat: allDifferentNumber1NumberOfConflicts=30
%%%mzn-stat: allDifferentNumber1MaxHallSetSizeConflict=37
%%%mzn-stat: allDifferentNumber1TotalPruningHallSetSize=94241
%%%mzn-stat: allDifferentNumber1NumberOfPruningExplanations=38732
%%%mzn-stat: allDifferentNumber1MaxPruningHallSetSize=111
%%%mzn-stat: allDifferentNumber1TotalFixedEdgesAtConflict=3861
%%%mzn-stat: allDifferentNumber1TotalVarsInvolvedInPruning=29905
%%%mzn-stat: allDifferentNumber1MaxValuesPrunedFromSingleVar=8
%%%mzn-stat: allDifferentNumber1TotalSccSizeAtPruning=41836
%%%mzn-stat: allDifferentNumber1NumberOfSccPruningCalls=11900
%%%mzn-stat: circuitNumber2PropagationsThatFoundConflict=4553
%%%mzn-stat: circuitNumber2TotalFixedEdgesAtConflict=663567
%%%mzn-stat: circuitNumber2NumberOfConflicts=4553
%%%mzn-stat: circuitNumber2PropagationsThatPruned=2955
%%%mzn-stat: circuitNumber2PropagationsTotal=13016
%%%mzn-stat: AverageConflictSize=68.71993127147766
%%%mzn-stat: NumUnitNogoodsLearned=0
%%%mzn-stat: AverageLearnedNogoodLength=64.05519759450172
%%%mzn-stat: AverageBacktrackAmount=0
%%%mzn-stat: AverageLbd=37.75150343642612
%%%mzn-stat: 2AutonomousSearchNumBackupCalled=4248
%%%mzn-stat: 2AutonomousSearchNumPredicatesRemoved=0
%%%mzn-stat: 2AutonomousSearchNumCalls=4252
%%%mzn-stat: 2AutonomousSearchNumPredicatesAdded=12308
%%%mzn-stat: 2AutonomousSearchAverageSizeOfHeap=4.681796801505174
%%%mzn-stat: 2AutonomousSearchNumAssignedPredicatesEncountered=19907
%%%mzn-stat-end
maxleg = 196;
succ = array1d(1..150,[4, 11, 5, 32, 38, 10, 40, 23, 18, 24, 20, 13, 30, 35, 3, 25, 81, 21, 28, 22, 39, 41, 17, 9, 36, 27, 88, 33, 48, 34, 65, 45, 46, 19, 42, 37, 49, 58, 129, 85, 15, 60, 6, 16, 62, 73, 54, 50, 29, 56, 12, 26, 82, 55, 8, 84, 110, 64, 67, 96, 90, 70, 2, 1, 91, 68, 98, 108, 52, 94, 47, 57, 130, 43, 51, 69, 63, 119, 136, 44, 116, 126, 7, 137, 143, 106, 141, 125, 140, 31, 118, 124, 120, 86, 148, 61, 122, 75, 76, 131, 53, 111, 138, 145, 101, 103, 146, 112, 72, 115, 89, 113, 135, 144, 87, 107, 92, 97, 117, 133, 93, 128, 105, 59, 95, 66, 102, 100, 114, 14, 149, 74, 109, 127, 147, 83, 132, 150, 99, 79, 80, 77, 121, 71, 134, 142, 139, 104, 123, 78]);
% time elapsed: 12.40 s
----------
%%%mzn-stat: initTime=0.031684808
%%%mzn-stat: objective=191
%%%mzn-stat: nodes=13190
%%%mzn-stat: restarts=0
%%%mzn-stat: peakDepth=1172
%%%mzn-stat: solveTime=9.527559629
%%%mzn-stat: variables=1793
%%%mzn-stat: propagators=1442
%%%mzn-stat: failures=5756
%%%mzn-stat: propagations=175484
%%%mzn-stat: nogoods=5756
%%%mzn-stat: numAtomicConstraintsPropagated=0
%%%mzn-stat: allDifferentNumber1PropagationsTotal=25151
%%%mzn-stat: allDifferentNumber1PropagationsThatFoundConflict=30
%%%mzn-stat: allDifferentNumber1PropagationsThatPruned=14651
%%%mzn-stat: allDifferentNumber1TotalValuesPruned=48270
%%%mzn-stat: allDifferentNumber1TotalHallSetSizeConflict=175
%%%mzn-stat: allDifferentNumber1NumberOfConflicts=30
%%%mzn-stat: allDifferentNumber1MaxHallSetSizeConflict=37
%%%mzn-stat: allDifferentNumber1TotalPruningHallSetSize=114238
%%%mzn-stat: allDifferentNumber1NumberOfPruningExplanations=48270
%%%mzn-stat: allDifferentNumber1MaxPruningHallSetSize=111
%%%mzn-stat: allDifferentNumber1TotalFixedEdgesAtConflict=3861
%%%mzn-stat: allDifferentNumber1TotalVarsInvolvedInPruning=37295
%%%mzn-stat: allDifferentNumber1MaxValuesPrunedFromSingleVar=8
%%%mzn-stat: allDifferentNumber1TotalSccSizeAtPruning=50158
%%%mzn-stat: allDifferentNumber1NumberOfSccPruningCalls=14651
%%%mzn-stat: circuitNumber2PropagationsThatFoundConflict=5651
%%%mzn-stat: circuitNumber2TotalFixedEdgesAtConflict=822436
%%%mzn-stat: circuitNumber2NumberOfConflicts=5651
%%%mzn-stat: circuitNumber2PropagationsThatPruned=3593
%%%mzn-stat: circuitNumber2PropagationsTotal=16095
%%%mzn-stat: AverageConflictSize=72.99357192494789
%%%mzn-stat: NumUnitNogoodsLearned=0
%%%mzn-stat: AverageLearnedNogoodLength=67.2635510771369
%%%mzn-stat: AverageBacktrackAmount=0
%%%mzn-stat: AverageLbd=41.116052814454484
%%%mzn-stat: 2AutonomousSearchNumBackupCalled=5292
%%%mzn-stat: 2AutonomousSearchNumPredicatesRemoved=0
%%%mzn-stat: 2AutonomousSearchNumCalls=5297
%%%mzn-stat: 2AutonomousSearchNumPredicatesAdded=15258
%%%mzn-stat: 2AutonomousSearchAverageSizeOfHeap=5.190296394185388
%%%mzn-stat: 2AutonomousSearchNumAssignedPredicatesEncountered=27493
%%%mzn-stat-end
maxleg = 191;
succ = array1d(1..150,[4, 11, 5, 32, 38, 10, 40, 23, 18, 24, 20, 13, 30, 35, 3, 25, 81, 21, 28, 22, 39, 41, 17, 9, 36, 27, 88, 33, 48, 34, 65, 45, 46, 19, 42, 37, 49, 58, 129, 85, 15, 60, 6, 16, 62, 73, 54, 50, 66, 56, 12, 26, 29, 55, 8, 82, 110, 64, 67, 96, 90, 70, 2, 1, 91, 68, 98, 84, 52, 94, 47, 57, 130, 43, 51, 69, 63, 119, 136, 44, 116, 108, 7, 137, 143, 106, 141, 125, 140, 31, 118, 124, 120, 86, 148, 61, 122, 75, 76, 131, 53, 111, 138, 145, 101, 103, 146, 126, 72, 115, 89, 113, 135, 144, 87, 107, 92, 97, 117, 133, 93, 128, 105, 59, 95, 112, 102, 100, 114, 14, 149, 74, 109, 127, 147, 83, 132, 150, 99, 79, 80, 77, 121, 71, 134, 142, 139, 104, 123, 78]);
% time elapsed: 14.56 s
----------
